NAME: map5_180
TYPE: TSP
COMMENT: autogenerated using a wonderful map creator
DIMENSION: 210
EDGE_WEIGHT_TYPE: EUC_2D
NODE_COORD_SECTION
1 9.0 62.0
2 10.0 62.0
3 11.0 62.0
4 46.0 58.0
5 46.0 59.0
6 46.0 60.0
7 34.0 6.0
8 34.0 5.0
9 34.0 4.0
10 58.0 22.0
11 58.0 21.0
12 58.0 20.0
13 6.0 7.0
14 6.0 6.0
15 6.0 5.0
16 12.0 62.0
17 13.0 62.0
18 14.0 62.0
19 46.0 61.0
20 46.0 62.0
21 46.0 63.0
22 58.0 19.0
23 58.0 18.0
24 58.0 17.0
25 34.0 3.0
26 34.0 2.0
27 34.0 1.0
28 6.0 4.0
29 6.0 3.0
30 6.0 2.0
31 9.0 63.0
32 10.0 63.0
33 11.0 63.0
34 47.0 58.0
35 47.0 59.0
36 47.0 60.0
37 33.0 6.0
38 33.0 5.0
39 33.0 4.0
40 57.0 22.0
41 57.0 21.0
42 57.0 20.0
43 7.0 7.0
44 7.0 6.0
45 7.0 5.0
46 12.0 63.0
47 13.0 63.0
48 14.0 63.0
49 47.0 61.0
50 47.0 62.0
51 47.0 63.0
52 57.0 19.0
53 57.0 18.0
54 57.0 17.0
55 33.0 3.0
56 33.0 2.0
57 33.0 1.0
58 7.0 4.0
59 7.0 3.0
60 7.0 2.0
61 23.0 4.0
62 12.0 4.0
63 41.0 49.0
64 52.0 49.0
65 47.0 7.0
66 14.0 13.0
67 19.0 9.0
68 42.0 11.0
69 38.0 44.0
70 54.0 49.0
71 43.0 21.0
72 12.0 52.0
73 18.0 1.0
74 27.0 34.0
75 16.0 13.0
76 53.0 62.0
77 44.0 38.0
78 50.0 54.0
79 13.0 35.0
80 25.0 34.0
81 25.0 43.0
82 12.0 18.0
83 50.0 20.0
84 41.0 17.0
85 52.0 17.0
86 9.0 28.0
87 6.0 59.0
88 15.0 7.0
89 27.0 36.0
90 25.0 18.0
91 13.0 28.0
92 45.0 5.0
93 19.0 50.0
94 30.0 59.0
95 63.0 29.0
96 60.0 5.0
97 63.0 38.0
98 54.0 35.0
99 6.0 43.0
100 58.0 26.0
101 51.0 20.0
102 23.0 47.0
103 60.0 41.0
104 44.0 33.0
105 53.0 11.0
106 34.0 62.0
107 25.0 38.0
108 5.0 62.0
109 29.0 29.0
110 12.0 22.0
111 61.0 15.0
112 37.0 30.0
113 6.0 45.0
114 29.0 47.0
115 49.0 59.0
116 27.0 22.0
117 49.0 4.0
118 26.0 57.0
119 14.0 37.0
120 59.0 36.0
121 52.0 39.0
122 17.0 39.0
123 47.0 52.0
124 5.0 46.0
125 59.0 63.0
126 22.0 7.0
127 31.0 10.0
128 38.0 25.0
129 54.0 21.0
130 11.0 50.0
131 30.0 63.0
132 4.0 20.0
133 57.0 1.0
134 27.0 15.0
135 29.0 49.0
136 58.0 30.0
137 21.0 45.0
138 35.0 62.0
139 53.0 52.0
140 35.0 25.0
141 31.0 12.0
142 38.0 27.0
143 9.0 55.0
144 11.0 52.0
145 61.0 1.0
146 33.0 58.0
147 21.0 38.0
148 23.0 35.0
149 8.0 13.0
150 47.0 38.0
151 63.0 1.0
152 34.0 59.0
153 42.0 42.0
154 45.0 13.0
155 57.0 42.0
156 4.0 15.0
157 49.0 47.0
158 47.0 22.0
159 13.0 2.0
160 17.0 18.0
161 34.0 34.0
162 22.0 41.0
163 45.0 43.0
164 28.0 45.0
165 22.0 59.0
166 21.0 6.0
167 29.0 19.0
168 38.0 31.0
169 63.0 30.0
170 57.0 44.0
171 26.0 29.0
172 62.0 43.0
173 25.0 3.0
174 4.0 35.0
175 59.0 35.0
176 30.0 17.0
177 47.0 42.0
178 1.0 20.0
179 47.0 51.0
180 31.0 9.0
181 37.0 59.0
182 41.0 50.0
183 27.0 60.0
184 62.0 27.0
185 28.0 13.0
186 25.0 5.0
187 46.0 3.0
188 22.0 45.0
189 57.0 12.0
190 9.0 27.0
191 62.0 63.0
192 51.0 26.0
193 60.0 38.0
194 54.0 4.0
195 22.0 63.0
196 3.0 59.0
197 26.0 33.0
198 6.0 30.0
199 18.0 29.0
200 35.0 45.0
201 59.0 12.0
202 42.0 5.0
203 2.0 51.0
204 37.0 18.0
205 59.0 30.0
206 22.0 1.0
207 37.0 54.0
208 15.0 17.0
209 49.0 19.0
210 31.0 13.0
211 59.0 5.0
212 61.0 2.0
213 44.0 50.0
214 7.0 31.0
215 39.0 29.0
216 27.0 9.0
217 54.0 36.0
218 20.0 34.0
219 11.0 10.0
220 14.0 27.0
221 57.0 62.0
222 48.0 4.0
223 14.0 36.0
224 63.0 57.0
225 11.0 19.0
226 22.0 49.0
227 9.0 31.0
228 12.0 2.0
229 23.0 11.0
230 15.0 28.0
231 43.0 44.0
232 15.0 37.0
233 52.0 56.0
234 61.0 13.0
235 19.0 62.0
236 45.0 26.0
237 44.0 6.0
238 54.0 38.0
239 34.0 35.0
240 1.0 22.0
START_DEPOT_SECTION
1
2
3
4
5
6
7
8
9
10
11
12
13
14
15
16
17
18
19
20
21
22
23
24
25
26
27
28
29
30
-1
END_DEPOT_SECTION
31
32
33
34
35
36
37
38
39
40
41
42
43
44
45
46
47
48
49
50
51
52
53
54
55
56
57
58
59
60
-1
EOF
